Route #1: 41 115 92 61 77 43 152 125 143 42 119 191 184 75 69 60 102 145 200 112 167 178 48 101 71 185 31 132 160 147 195 15 155 59 1 51 172 120 49 72 116 47 23 
Route #2: 80 18 67 96 186 196 122 194 128 95 13 32 114 68 21 6 40 27 193 159 146 127 44 197 107 38 138 124 136 24 187 7 156 173 5 57 22 78 181 86 183 53 164 171 99 
Route #3: 111 144 74 192 33 94 149 134 188 177 97 35 28 162 158 36 190 106 108 76 182 100 54 104 2 63 82 34 
Route #4: 131 62 179 117 137 81 175 37 140 139 29 88 103 118 129 9 19 65 56 39 199 52 
Route #5: 168 55 151 45 8 150 58 166 157 90 26 50 84 141 161 11 64 66 142 123 10 130 198 93 105 176 91 126 79 17 133 16 89 174 154 169 73 153 180 85 14 98 46 121 189 83 20 30 170 135 109 12 110 3 4 165 87 113 25 70 163 148 
Cost 1928.5
